k = 36;
b = 18;
AtomicConstraints =  [|
1, 4|
	1, 20|
	2, 4|
	2, 20|
	3, 4|
	3, 20|
	5, 6|
	5, 7|
	5, 19|
	5, 10|
	5, 11|
	5, 12|
	5, 13|
	5, 14|
	5, 15|
	5, 16|
	5, 17|
	5, 18|
	6, 7|
	6, 19|
	6, 10|
	6, 11|
	6, 12|
	6, 13|
	6, 14|
	6, 15|
	6, 16|
	6, 17|
	6, 18|
	7, 19|
	7, 10|
	7, 11|
	7, 12|
	7, 13|
	7, 14|
	7, 15|
	7, 16|
	7, 17|
	7, 18|
	8, 5|
	8, 6|
	8, 7|
	8, 19|
	8, 10|
	8, 11|
	8, 12|
	8, 13|
	8, 14|
	8, 15|
	8, 16|
	8, 17|
	8, 18|
	21, 19|
	21, 10|
	21, 11|
	21, 12|
	21, 13|
	21, 14|
	21, 15|
	21, 16|
	21, 17|
	21, 18|
	21, 26|
	21, 29|
	21, 36|
	21, 23|
	21, 32|
	21, 33|
	21, 31|
	21, 34|
	21, 35|
	9, 19|
	9, 10|
	9, 11|
	9, 12|
	9, 13|
	9, 14|
	9, 15|
	9, 16|
	9, 17|
	9, 18|
	9, 26|
	9, 29|
	9, 36|
	9, 23|
	9, 32|
	9, 33|
	9, 34|
	9, 35|
	10, 19|
	10, 12|
	11, 19|
	11, 10|
	11, 13|
	11, 14|
	13, 19|
	13, 12|
	14, 19|
	14, 10|
	14, 12|
	14, 13|
	26, 15|
	26, 16|
	26, 17|
	26, 18|
	26, 33|
	29, 15|
	29, 16|
	29, 17|
	29, 18|
	29, 33|
	36, 15|
	36, 16|
	36, 17|
	36, 18|
	23, 34|
	32, 34|
	33, 15|
	24, 35|
	31, 35|];
DisjunctiveConstraints =  [|2, 3, 2, 1|
	5, 6, 5, 24|
	5, 7, 5, 25|
	6, 7, 6, 25|
	21, 5, 21, 23|
	21, 13, 21, 31|
	21, 17, 21, 35|
	13, 12, 13, 30|
	14, 12, 14, 30|
	14, 13, 14, 31|
	16, 15, 16, 17|
	17, 16, 17, 18|
	22, 27, 22, 28|
	29, 15, 29, 33|
	32, 16, 32, 34|
	31, 17, 31, 35|];
SoftAtomicConstraints =  [|
2, 1|
3, 2|
20, 4|
21, 9|
13, 10|
15, 16|
16, 17|
17, 18|
12, 19|
27, 22|
1, 27|
22, 28|
26, 29|
25, 30|
24, 31|
23, 32|
32, 33|
31, 34|
30, 35|
29, 36|];
DirectSuccessors =  [5,
6,
7,
8,
11,
12,
13,
14,
15,
16,
17,
18,
26,
29,
36,
23,
32,
33,
24,
31,
34,
25,
30,
35];
